set VV := 0 1 2 3 4 5 6 7 8 9 10 11 12 13 14 15 16 17 18 19 20 21 22 23 24 25 26 27 28 29 30 31 32 33 34 35 36 37 38 39 40 41 42 43 44 ;
set VS := 0 1 2 3 4 5 6 7 8 9 10 11 12 13 14 15 16 17 18 19 20 21 22 23 24 25 26 27 28 29 30 31 32 33 34 35 36 37 38 39 40 41 42 43 44 45 46 47 48 49 50 51 52 53 54 55 56 57 58 59 60 61 62 63 64 65 66 67 68 69 70 71 72 73 74 75 76 77 78 79 80 81 82 83 84 85 86 87 88 89 90 91 92 93 94 ;
param cv := 
0 16
1 12
2 23
3 12
4 23
5 18
6 10
7 20
8 25
9 25
10 10
11 12
12 17
13 15
14 15
15 13
16 12
17 20
18 18
19 23
20 13
21 11
22 15
23 23
24 19
25 15
26 24
27 12
28 21
29 16
30 14
31 13
32 11
33 15
34 15
35 10
36 13
37 18
38 14
39 20
40 23
41 14
42 22
43 15
44 15
;
param cs := 
0 20
1 37
2 24
3 38
4 20
5 20
6 29
7 36
8 27
9 23
10 26
11 34
12 22
13 25
14 37
15 23
16 38
17 27
18 32
19 23
20 24
21 34
22 39
23 27
24 20
25 32
26 36
27 39
28 23
29 33
30 33
31 38
32 36
33 22
34 22
35 34
36 23
37 35
38 40
39 23
40 36
41 34
42 32
43 33
44 21
45 32
46 27
47 29
48 29
49 32
50 37
51 28
52 31
53 26
54 27
55 39
56 34
57 40
58 35
59 30
60 20
61 38
62 35
63 35
64 32
65 36
66 34
67 35
68 36
69 24
70 40
71 27
72 30
73 37
74 30
75 33
76 38
77 34
78 38
79 35
80 21
81 33
82 37
83 20
84 34
85 32
86 40
87 20
88 32
89 27
90 25
91 28
92 21
93 35
94 32
;
param bv:	 0 1 2 3 4 5 6 7 8 9 10 11 12 13 14 15 16 17 18 19 20 21 22 23 24 25 26 27 28 29 30 31 32 33 34 35 36 37 38 39 40 41 42 43 44 := 
		0 0 0 0 0 0 0 0 0 0 0 0 0 0 0 0 0 13 0 0 22 0 0 0 0 0 0 0 0 0 0 0 0 0 23 0 0 14 0 0 17 0 0 0 0 0 
		1 0 0 15 0 0 0 17 0 0 0 0 0 0 0 0 0 0 0 0 0 0 0 0 0 0 11 12 0 0 24 0 0 0 0 0 0 0 0 0 20 0 0 0 0 0 
		2 0 0 0 0 0 0 0 0 0 0 0 0 0 21 0 0 14 0 0 0 17 0 0 0 0 0 0 0 0 14 11 0 0 0 0 0 0 0 0 18 0 0 0 0 11 
		3 0 0 0 0 0 0 0 0 13 0 0 0 0 0 0 15 0 0 0 0 0 0 0 0 0 0 0 0 13 0 0 0 0 15 0 0 0 12 0 0 0 0 0 0 0 
		4 0 0 0 0 0 0 0 0 0 0 15 0 0 0 0 0 0 0 16 0 0 0 0 21 0 21 0 0 0 0 0 0 0 0 0 0 0 0 0 0 0 0 0 0 0 
		5 0 0 0 0 0 0 0 0 0 0 0 0 0 0 0 0 0 0 0 0 0 0 0 0 0 0 0 0 0 0 18 0 0 0 0 16 0 0 15 0 0 0 0 0 0 
		6 0 0 0 0 0 0 0 0 0 0 0 0 0 0 0 0 0 0 0 0 21 15 0 0 0 0 25 0 0 0 0 0 0 0 0 0 0 0 0 0 0 0 0 0 0 
		7 0 0 0 0 0 0 0 0 11 0 13 0 0 0 0 0 0 0 0 0 0 0 0 0 0 0 0 21 0 0 0 0 0 0 11 0 0 0 0 24 0 0 0 0 0 
		8 0 0 0 0 0 0 0 0 0 0 0 0 0 0 0 0 0 0 0 0 13 0 0 0 0 0 0 19 0 21 16 0 0 0 0 0 0 0 0 14 0 0 0 0 0 
		9 0 0 0 0 0 0 0 0 0 0 0 0 0 0 0 0 0 0 0 17 0 0 0 0 0 0 0 0 0 0 0 0 0 0 0 0 0 0 0 0 0 0 0 18 0 
		10 0 0 0 0 0 0 0 0 0 0 0 0 0 0 0 0 0 0 0 0 0 0 0 0 0 0 0 0 0 19 0 0 0 0 0 0 0 0 0 0 0 0 0 0 0 
		11 0 0 0 0 0 0 0 0 0 0 0 0 0 0 0 0 0 0 0 0 0 0 20 0 14 0 0 0 0 0 0 0 0 0 0 0 0 13 0 10 22 0 0 0 15 
		12 0 0 0 0 0 0 0 0 0 0 0 0 0 0 0 0 0 0 0 0 0 0 0 0 0 0 0 0 0 0 0 0 0 0 0 0 0 0 0 0 0 25 0 0 0 
		13 0 0 0 0 0 0 0 0 0 0 0 0 0 0 0 0 0 0 0 0 0 0 0 0 0 0 22 0 13 0 0 0 25 0 0 0 0 0 0 0 0 0 0 0 0 
		14 0 0 0 0 0 0 0 0 0 0 0 0 0 0 0 0 0 0 0 0 0 0 0 0 0 0 0 0 0 0 0 0 10 0 0 0 0 0 0 0 0 0 0 0 0 
		15 0 0 0 0 0 0 0 0 0 0 0 0 0 0 0 0 0 0 0 0 25 0 0 0 0 0 19 0 0 23 0 0 0 0 18 0 21 0 0 0 0 0 0 0 0 
		16 0 0 0 0 0 0 0 0 0 0 0 0 0 0 0 0 0 0 0 25 0 0 0 0 0 0 0 0 0 0 22 0 0 0 25 11 0 0 0 0 0 23 0 15 0 
		17 0 0 0 0 0 0 0 0 0 0 0 0 0 0 0 0 0 0 0 0 0 0 0 0 0 0 0 19 0 0 0 0 0 0 0 0 0 0 0 0 0 20 0 0 0 
		18 0 0 0 0 0 0 0 0 0 0 0 0 0 0 0 0 0 0 0 0 0 0 0 19 14 0 0 0 0 22 0 21 0 0 0 0 0 0 0 0 0 0 0 0 0 
		19 0 0 0 0 0 0 0 0 0 0 0 0 0 0 0 0 0 0 0 0 0 0 0 0 0 0 15 0 0 0 0 0 0 0 0 0 13 0 0 0 0 0 21 0 0 
		20 0 0 0 0 0 0 0 0 0 0 0 0 0 0 0 0 0 0 0 0 0 0 0 0 0 0 0 0 0 0 0 0 0 0 0 0 0 0 0 20 0 0 0 0 0 
		21 0 0 0 0 0 0 0 0 0 0 0 0 0 0 0 0 0 0 0 0 0 0 0 0 12 0 0 0 0 0 16 0 12 0 0 0 0 0 0 0 0 0 0 0 0 
		22 0 0 0 0 0 0 0 0 0 0 0 0 0 0 0 0 0 0 0 0 0 0 0 0 0 0 0 0 0 0 0 0 0 0 0 0 15 0 0 0 0 0 0 0 0 
		23 0 0 0 0 0 0 0 0 0 0 0 0 0 0 0 0 0 0 0 0 0 0 0 0 0 23 0 0 0 0 0 0 0 0 0 0 0 0 0 0 20 0 0 0 0 
		24 0 0 0 0 0 0 0 0 0 0 0 0 0 0 0 0 0 0 0 0 0 0 0 0 0 12 0 0 0 0 0 16 0 0 0 0 0 0 0 0 0 0 0 0 13 
		25 0 0 0 0 0 0 0 0 0 0 0 0 0 0 0 0 0 0 0 0 0 0 0 0 0 0 0 0 0 24 19 0 0 0 0 0 14 24 0 0 0 0 0 0 0 
		26 0 0 0 0 0 0 0 0 0 0 0 0 0 0 0 0 0 0 0 0 0 0 0 0 0 0 0 23 0 0 0 0 0 0 0 0 0 23 0 0 0 14 0 0 0 
		27 0 0 0 0 0 0 0 0 0 0 0 0 0 0 0 0 0 0 0 0 0 0 0 0 0 0 0 0 0 0 0 0 0 0 0 0 0 0 0 0 0 0 12 0 0 
		28 0 0 0 0 0 0 0 0 0 0 0 0 0 0 0 0 0 0 0 0 0 0 0 0 0 0 0 0 0 0 0 0 23 0 0 0 0 0 0 0 24 0 0 0 0 
		29 0 0 0 0 0 0 0 0 0 0 0 0 0 0 0 0 0 0 0 0 0 0 0 0 0 0 0 0 0 0 0 0 0 0 0 0 0 0 0 0 0 0 0 0 0 
		30 0 0 0 0 0 0 0 0 0 0 0 0 0 0 0 0 0 0 0 0 0 0 0 0 0 0 0 0 0 0 0 0 0 0 0 0 20 24 0 0 0 0 0 0 0 
		31 0 0 0 0 0 0 0 0 0 0 0 0 0 0 0 0 0 0 0 0 0 0 0 0 0 0 0 0 0 0 0 0 0 0 0 0 0 0 0 24 0 0 0 0 0 
		32 0 0 0 0 0 0 0 0 0 0 0 0 0 0 0 0 0 0 0 0 0 0 0 0 0 0 0 0 0 0 0 0 0 0 0 0 0 0 25 0 0 0 0 0 0 
		33 0 0 0 0 0 0 0 0 0 0 0 0 0 0 0 0 0 0 0 0 0 0 0 0 0 0 0 0 0 0 0 0 0 0 0 0 16 20 0 0 14 0 0 0 0 
		34 0 0 0 0 0 0 0 0 0 0 0 0 0 0 0 0 0 0 0 0 0 0 0 0 0 0 0 0 0 0 0 0 0 0 0 0 0 0 0 10 0 0 0 0 0 
		35 0 0 0 0 0 0 0 0 0 0 0 0 0 0 0 0 0 0 0 0 0 0 0 0 0 0 0 0 0 0 0 0 0 0 0 0 0 0 0 21 0 0 0 13 0 
		36 0 0 0 0 0 0 0 0 0 0 0 0 0 0 0 0 0 0 0 0 0 0 0 0 0 0 0 0 0 0 0 0 0 0 0 0 0 0 0 0 0 0 0 0 0 
		37 0 0 0 0 0 0 0 0 0 0 0 0 0 0 0 0 0 0 0 0 0 0 0 0 0 0 0 0 0 0 0 0 0 0 0 0 0 0 0 0 0 0 13 0 0 
		38 0 0 0 0 0 0 0 0 0 0 0 0 0 0 0 0 0 0 0 0 0 0 0 0 0 0 0 0 0 0 0 0 0 0 0 0 0 0 0 0 23 0 0 0 0 
		39 0 0 0 0 0 0 0 0 0 0 0 0 0 0 0 0 0 0 0 0 0 0 0 0 0 0 0 0 0 0 0 0 0 0 0 0 0 0 0 0 0 0 12 0 0 
		40 0 0 0 0 0 0 0 0 0 0 0 0 0 0 0 0 0 0 0 0 0 0 0 0 0 0 0 0 0 0 0 0 0 0 0 0 0 0 0 0 0 24 0 0 0 
		41 0 0 0 0 0 0 0 0 0 0 0 0 0 0 0 0 0 0 0 0 0 0 0 0 0 0 0 0 0 0 0 0 0 0 0 0 0 0 0 0 0 0 0 0 0 
		42 0 0 0 0 0 0 0 0 0 0 0 0 0 0 0 0 0 0 0 0 0 0 0 0 0 0 0 0 0 0 0 0 0 0 0 0 0 0 0 0 0 0 0 0 0 
		43 0 0 0 0 0 0 0 0 0 0 0 0 0 0 0 0 0 0 0 0 0 0 0 0 0 0 0 0 0 0 0 0 0 0 0 0 0 0 0 0 0 0 0 0 0 
		44 0 0 0 0 0 0 0 0 0 0 0 0 0 0 0 0 0 0 0 0 0 0 0 0 0 0 0 0 0 0 0 0 0 0 0 0 0 0 0 0 0 0 0 0 0 
;
param bs:	 0 1 2 3 4 5 6 7 8 9 10 11 12 13 14 15 16 17 18 19 20 21 22 23 24 25 26 27 28 29 30 31 32 33 34 35 36 37 38 39 40 41 42 43 44 45 46 47 48 49 50 51 52 53 54 55 56 57 58 59 60 61 62 63 64 65 66 67 68 69 70 71 72 73 74 75 76 77 78 79 80 81 82 83 84 85 86 87 88 89 90 91 92 93 94 := 
		0 0 0 0 0 0 0 33 20 31 0 0 0 0 21 0 0 0 0 0 0 0 35 0 23 21 0 0 0 0 0 0 0 0 0 0 0 0 0 29 0 0 37 0 0 23 0 0 0 0 0 0 0 0 27 0 0 0 0 0 0 24 0 24 0 0 0 0 30 0 0 0 0 26 0 0 0 0 33 0 0 0 0 0 0 0 30 0 28 0 0 0 0 0 0 0 
		1 0 0 0 0 0 0 0 0 0 0 0 0 0 22 0 23 0 37 0 0 0 0 0 0 0 0 30 0 0 0 0 0 0 0 0 0 0 0 0 0 0 0 39 30 0 0 0 0 0 0 0 0 0 0 0 0 0 0 0 0 0 0 0 0 0 0 0 0 0 0 0 0 0 0 0 0 0 0 0 0 0 0 0 0 0 0 0 0 0 0 0 0 0 0 0 
		2 0 0 0 0 0 39 0 21 0 21 0 0 0 0 0 0 0 0 0 0 0 0 0 0 0 0 0 0 0 0 0 0 0 0 0 0 0 0 31 0 0 0 0 0 0 0 0 0 0 0 0 0 0 0 0 0 0 0 0 0 0 0 0 0 0 0 0 0 0 0 0 0 0 0 0 0 0 0 0 36 0 0 0 0 0 0 37 0 0 0 0 0 0 0 0 
		3 0 0 0 0 0 0 0 0 0 0 0 0 0 0 0 0 0 0 0 0 0 0 31 0 0 0 0 0 0 0 0 0 0 0 0 0 0 0 0 37 0 0 0 0 0 0 0 0 20 0 0 0 0 0 0 0 0 0 0 0 0 0 0 0 0 0 0 0 0 0 0 0 0 0 0 0 0 0 0 0 0 0 0 0 0 0 29 0 34 0 0 0 0 0 0 
		4 0 0 0 0 0 0 33 0 0 0 0 0 0 0 0 0 0 39 0 0 0 0 0 0 0 0 0 0 0 0 0 0 0 21 0 0 0 29 0 0 0 0 39 0 0 0 0 0 0 0 0 0 0 0 0 0 22 0 0 32 0 0 0 0 0 0 0 0 24 0 0 0 0 24 0 0 0 0 0 0 0 0 0 20 0 0 0 0 0 0 0 0 0 0 25 
		5 0 0 39 0 0 0 0 0 0 0 0 0 0 0 0 0 0 0 0 0 0 0 0 0 0 0 0 0 0 0 0 0 0 0 0 0 35 0 0 0 0 0 0 0 0 0 0 39 0 0 0 0 0 0 0 0 0 0 0 0 0 0 0 0 26 0 0 0 0 0 0 0 0 0 0 0 0 0 0 0 0 0 0 0 0 0 0 0 24 0 30 0 0 0 0 
		6 33 0 0 0 33 0 0 23 0 0 0 31 0 0 37 0 0 0 0 0 0 0 0 36 0 0 0 0 0 0 0 0 27 0 0 0 0 0 0 0 0 0 0 21 0 0 0 0 0 0 0 0 0 0 0 0 0 34 0 0 0 22 0 0 0 0 0 0 0 0 0 22 0 0 0 0 0 0 0 0 22 30 0 0 0 0 0 0 0 36 0 0 0 0 0 
		7 20 0 21 0 0 0 23 0 0 0 0 0 27 0 0 0 0 0 0 0 0 0 0 0 0 0 36 0 34 0 39 0 36 0 0 0 0 0 0 0 0 0 0 34 0 0 25 0 0 0 0 0 0 0 28 0 25 0 0 0 0 38 0 0 0 0 0 0 0 0 0 0 34 0 0 0 0 0 0 0 0 0 0 29 0 0 0 0 0 0 40 34 20 31 0 
		8 31 0 0 0 0 0 0 0 0 0 0 34 0 0 0 0 0 0 0 0 38 21 0 0 0 0 0 39 0 0 0 0 0 0 0 0 0 0 36 0 0 0 0 0 0 40 0 0 0 0 0 0 0 0 0 0 0 0 0 0 0 29 0 0 0 0 0 0 0 0 0 0 31 0 0 0 20 0 0 0 0 28 0 0 0 0 0 0 0 0 0 0 0 0 0 
		9 0 0 21 0 0 0 0 0 0 0 0 0 0 0 33 28 23 0 23 0 0 0 0 0 0 0 0 0 0 0 0 0 0 38 0 0 0 0 27 0 0 0 0 0 0 0 30 0 29 0 0 0 0 0 0 0 0 0 0 0 0 0 20 0 0 0 0 0 0 0 0 0 26 0 0 0 0 0 0 0 0 0 27 0 0 0 0 0 26 0 25 0 0 0 0 
		10 0 0 0 0 0 0 0 0 0 0 0 0 0 0 0 0 28 0 0 0 0 22 0 0 0 0 0 0 0 0 0 0 38 0 0 0 0 0 0 0 0 0 0 0 0 0 0 0 0 0 0 0 0 27 0 0 0 0 34 0 0 0 0 0 0 36 0 0 0 0 0 0 0 0 0 34 0 25 0 0 26 0 0 0 0 0 0 0 0 0 0 0 24 0 0 
		11 0 0 0 0 0 0 31 0 34 0 0 0 0 0 0 0 0 28 0 0 0 0 0 0 0 0 0 0 0 0 0 0 35 0 32 0 0 0 0 0 0 0 0 0 30 0 0 0 0 28 0 0 0 0 0 0 0 0 0 0 0 0 0 0 0 38 0 0 0 0 0 0 0 0 0 0 0 22 27 0 0 0 0 0 0 0 0 0 0 0 0 0 0 0 0 
		12 0 0 0 0 0 0 0 27 0 0 0 0 0 0 27 0 0 0 0 0 0 0 0 0 0 0 0 0 0 0 0 0 0 0 34 33 0 0 0 0 0 0 0 22 0 0 40 0 0 0 0 0 0 0 28 0 0 0 0 0 0 0 0 0 0 0 0 0 0 32 0 0 0 0 0 0 0 0 0 0 37 0 0 0 0 0 0 0 0 0 0 30 0 0 0 
		13 21 22 0 0 0 0 0 0 0 0 0 0 0 0 0 0 0 0 0 27 0 0 0 0 0 0 0 0 0 0 0 0 0 0 0 0 0 0 0 0 0 0 0 0 29 0 0 36 0 0 0 0 0 0 0 0 0 0 0 0 0 0 0 0 0 0 0 0 26 0 0 0 0 0 0 0 0 0 0 0 0 0 0 0 0 0 0 0 0 0 0 0 0 0 0 
		14 0 0 0 0 0 0 37 0 0 33 0 0 27 0 0 0 0 0 0 0 0 32 0 33 0 0 0 0 38 0 0 0 38 0 0 0 29 0 38 0 0 0 0 0 0 0 37 0 29 0 0 0 0 0 0 22 0 0 0 0 0 0 0 0 27 0 0 0 0 0 0 0 0 0 0 0 33 0 0 0 35 0 39 0 25 0 0 0 0 0 40 32 0 0 0 
		15 0 23 0 0 0 0 0 0 0 28 0 0 0 0 0 0 0 0 0 0 0 0 27 0 0 0 0 0 0 0 0 0 21 34 0 0 0 0 0 28 0 0 0 0 0 0 0 0 23 0 0 0 0 0 0 0 0 0 0 0 0 0 0 0 30 0 0 0 0 33 0 0 0 0 0 0 0 0 0 0 0 0 0 0 0 0 0 0 0 0 0 0 0 0 0 
		16 0 0 0 0 0 0 0 0 0 23 28 0 0 0 0 0 0 0 0 0 0 0 0 0 0 0 0 0 0 0 0 23 0 0 0 0 0 0 0 0 26 0 0 0 0 0 0 0 39 0 0 0 24 0 29 0 35 0 0 0 0 30 23 0 40 26 0 0 39 0 0 0 35 0 32 0 34 0 0 27 37 0 0 0 27 0 0 0 0 0 0 0 0 0 0 
		17 0 37 0 0 39 0 0 0 0 0 0 28 0 0 0 0 0 0 0 0 0 33 0 0 0 0 0 0 0 0 0 0 0 0 0 0 0 20 0 0 0 0 0 24 0 0 0 0 35 0 0 0 0 26 32 0 40 30 21 0 0 0 0 0 0 0 0 0 0 23 0 0 21 34 0 0 0 0 0 26 0 0 0 0 0 0 0 0 0 0 0 0 0 0 0 
		18 0 0 0 0 0 0 0 0 0 23 0 0 0 0 0 0 0 0 0 0 0 0 0 0 0 29 0 0 35 0 0 0 0 0 0 0 22 0 40 0 0 0 0 0 0 0 0 0 0 0 0 0 0 0 0 0 0 0 0 0 0 0 0 0 0 0 0 0 0 0 0 0 0 0 20 0 0 0 0 0 0 0 0 0 0 0 0 0 0 0 0 0 0 0 0 
		19 0 0 0 0 0 0 0 0 0 0 0 0 0 27 0 0 0 0 0 0 0 0 0 0 0 0 0 0 0 0 0 0 0 0 0 0 0 0 0 0 0 0 0 0 0 38 0 0 0 0 0 22 0 0 0 0 0 0 0 0 0 0 36 0 0 0 0 0 0 0 0 0 0 0 0 0 0 0 0 0 0 0 0 0 0 0 0 0 0 0 0 0 0 0 0 
		20 0 0 0 0 0 0 0 0 38 0 0 0 0 0 0 0 0 0 0 0 0 0 0 0 0 0 0 0 0 0 0 0 0 0 25 0 34 0 0 0 0 0 0 0 0 0 0 0 0 0 0 27 0 0 0 0 0 0 0 0 0 0 0 0 0 0 0 0 0 0 0 0 0 0 0 0 0 0 0 0 0 0 0 0 0 0 0 0 0 0 0 0 0 0 0 
		21 35 0 0 0 0 0 0 0 21 0 22 0 0 0 32 0 0 33 0 0 0 0 0 34 25 0 0 0 0 0 0 0 0 0 21 0 0 0 0 32 0 40 0 28 0 0 35 0 0 0 0 0 0 0 0 0 0 0 0 38 40 0 31 33 0 36 0 0 0 0 0 0 26 24 0 0 0 0 0 0 37 0 23 0 0 0 0 0 29 30 0 0 0 0 25 
		22 0 0 0 31 0 0 0 0 0 0 0 0 0 0 0 27 0 0 0 0 0 0 0 0 0 0 23 0 0 0 0 37 0 0 0 0 0 0 0 0 0 0 0 29 0 0 0 0 0 0 0 0 0 0 0 0 0 0 0 0 0 0 0 0 0 0 28 0 0 0 0 0 0 0 0 0 0 0 0 0 0 0 0 0 0 0 0 0 0 0 0 0 0 0 0 
		23 23 0 0 0 0 0 36 0 0 0 0 0 0 0 33 0 0 0 0 0 0 34 0 0 0 0 0 0 0 0 20 0 0 0 0 26 0 0 0 0 0 0 0 0 36 33 0 0 0 34 0 0 0 0 0 27 0 0 0 0 28 0 0 0 34 0 0 0 0 0 0 0 0 0 0 0 0 0 0 0 0 0 0 0 0 0 0 21 0 0 0 27 0 0 20 
		24 21 0 0 0 0 0 0 0 0 0 0 0 0 0 0 0 0 0 0 0 0 25 0 0 0 0 0 0 0 0 0 0 0 0 0 26 0 0 0 0 0 22 20 0 0 0 27 0 0 0 0 0 0 21 0 0 0 0 0 0 38 0 0 0 0 0 0 0 0 0 0 0 32 0 0 0 0 0 0 0 0 34 0 29 0 0 0 0 0 0 0 0 0 0 0 
		25 0 0 0 0 0 0 0 0 0 0 0 0 0 0 0 0 0 0 29 0 0 0 0 0 0 0 0 0 0 0 0 0 0 0 0 36 0 0 0 26 0 0 0 0 0 0 0 0 32 0 0 0 29 0 0 0 0 29 0 0 29 0 0 0 0 0 37 36 0 0 0 31 0 0 36 0 0 0 29 0 0 0 0 0 0 0 0 0 0 0 37 37 0 0 27 
		26 0 30 0 0 0 0 0 36 0 0 0 0 0 0 0 0 0 0 0 0 0 0 23 0 0 0 0 0 0 0 0 0 0 33 0 0 0 21 0 0 0 0 0 0 0 0 0 0 0 0 29 0 33 0 0 0 0 0 0 0 0 0 26 0 22 26 0 0 0 22 0 0 0 0 0 0 34 0 23 0 0 0 0 0 38 0 0 32 0 39 32 34 31 0 0 
		27 0 0 0 0 0 0 0 0 39 0 0 0 0 0 0 0 0 0 0 0 0 0 0 0 0 0 0 0 0 23 0 0 0 0 0 0 0 31 0 0 0 0 0 0 0 0 0 0 0 0 0 0 0 0 0 0 0 0 0 0 32 0 0 0 0 0 0 0 0 0 24 0 0 0 0 0 0 0 0 0 30 0 0 0 0 0 0 0 0 0 0 0 0 32 0 
		28 0 0 0 0 0 0 0 34 0 0 0 0 0 0 38 0 0 0 35 0 0 0 0 0 0 0 0 0 0 0 20 0 0 0 0 0 0 0 20 0 0 0 0 0 0 0 0 0 0 0 0 0 0 0 0 0 0 0 0 0 0 0 0 0 0 0 37 0 0 0 0 0 20 32 0 0 0 0 0 0 0 0 0 0 0 0 0 0 24 30 0 0 0 0 25 
		29 0 0 0 0 0 0 0 0 0 0 0 0 0 0 0 0 0 0 0 0 0 0 0 0 0 0 0 23 0 0 27 0 0 0 0 0 0 0 0 0 0 0 0 0 0 0 0 0 0 0 0 21 0 0 0 0 0 0 0 0 0 0 25 0 0 0 32 0 0 0 0 0 39 0 0 0 0 0 32 0 0 23 0 0 0 0 0 0 0 30 0 0 0 0 28 
		30 0 0 0 0 0 0 0 39 0 0 0 0 0 0 0 0 0 0 0 0 0 0 0 20 0 0 0 0 20 27 0 0 0 0 37 0 0 0 0 0 31 0 0 0 0 0 29 0 0 0 0 28 0 0 20 0 0 0 0 0 40 0 0 0 0 0 0 0 0 0 0 0 22 0 31 0 37 0 0 0 0 0 0 0 0 0 0 0 27 0 0 0 0 0 0 
		31 0 0 0 0 0 0 0 0 0 0 0 0 0 0 0 0 23 0 0 0 0 0 37 0 0 0 0 0 0 0 0 0 0 0 0 0 0 0 26 0 0 0 0 0 0 30 0 0 0 0 0 0 0 0 34 0 0 0 0 0 0 23 27 0 0 0 0 0 0 0 0 0 0 0 0 0 0 0 0 0 0 0 38 0 0 0 0 0 0 0 0 21 24 0 0 
		32 0 0 0 0 0 0 27 36 0 0 38 35 0 0 38 21 0 0 0 0 0 0 0 0 0 0 0 0 0 0 0 0 0 0 0 0 0 0 0 0 0 34 0 0 0 0 21 0 0 0 0 0 0 0 0 23 32 0 0 0 0 0 0 0 0 39 0 0 0 0 27 0 0 0 0 0 32 0 0 0 0 0 25 0 0 0 34 0 24 35 0 0 0 0 0 
		33 0 0 0 0 21 0 0 0 0 38 0 0 0 0 0 34 0 0 0 0 0 0 0 0 0 0 33 0 0 0 0 0 0 0 0 29 0 27 0 0 0 0 0 0 0 0 39 0 0 0 0 0 0 0 0 0 0 25 40 37 0 31 0 0 0 0 0 0 0 0 0 0 0 0 0 0 0 0 0 28 0 35 0 0 0 0 0 0 0 0 32 0 0 0 0 
		34 0 0 0 0 0 0 0 0 0 0 0 32 34 0 0 0 0 0 0 0 25 21 0 0 0 0 0 0 0 0 37 0 0 0 0 0 0 0 0 0 0 0 0 0 0 34 0 0 0 0 0 0 0 0 30 0 0 40 0 0 0 0 35 0 0 0 0 0 0 0 31 40 0 0 0 0 28 23 34 0 0 0 0 0 0 0 0 21 0 0 0 0 0 0 0 
		35 0 0 0 0 0 0 0 0 0 0 0 0 33 0 0 0 0 0 0 0 0 0 0 26 26 36 0 0 0 0 0 0 0 29 0 0 0 0 0 0 0 0 0 0 0 0 0 0 0 0 0 0 0 0 0 0 0 0 26 0 0 0 0 0 0 0 0 0 0 0 0 0 0 0 0 0 0 0 0 26 0 0 0 0 0 0 0 0 0 0 0 0 0 0 0 
		36 0 0 0 0 0 35 0 0 0 0 0 0 0 0 29 0 0 0 22 0 34 0 0 0 0 0 0 0 0 0 0 0 0 0 0 0 0 0 0 0 0 0 0 0 0 0 0 0 0 0 0 0 0 0 0 24 0 0 0 0 0 0 0 0 0 0 0 0 0 0 0 0 0 0 0 0 0 0 0 0 0 0 23 0 0 0 0 0 0 0 0 0 0 0 0 
		37 0 0 0 0 29 0 0 0 0 0 0 0 0 0 0 0 0 20 0 0 0 0 0 0 0 0 21 31 0 0 0 0 0 27 0 0 0 0 0 0 0 0 0 0 0 0 0 0 0 0 0 0 0 0 0 0 0 0 40 0 0 0 0 0 0 0 0 0 0 0 27 0 0 0 0 0 23 0 34 0 0 25 0 0 0 0 0 0 0 0 0 0 0 0 0 
		38 29 0 31 0 0 0 0 0 36 27 0 0 0 0 38 0 0 0 40 0 0 0 0 0 0 0 0 0 20 0 0 26 0 0 0 0 0 0 0 0 0 0 0 0 0 0 0 0 0 0 0 0 0 0 0 36 35 0 0 0 0 0 0 0 0 0 30 0 0 0 0 0 0 0 0 0 0 0 0 0 0 0 0 0 0 0 0 0 0 0 38 0 0 0 0 
		39 0 0 0 37 0 0 0 0 0 0 0 0 0 0 0 28 0 0 0 0 0 32 0 0 0 26 0 0 0 0 0 0 0 0 0 0 0 0 0 0 0 0 0 0 0 0 0 0 0 0 0 20 0 0 0 0 20 0 0 0 0 0 39 0 0 0 28 0 0 0 0 0 0 0 0 0 0 0 0 0 0 0 0 0 0 0 0 0 0 0 0 31 0 23 0 
		40 0 0 0 0 0 0 0 0 0 0 0 0 0 0 0 0 26 0 0 0 0 0 0 0 0 0 0 0 0 0 31 0 0 0 0 0 0 0 0 0 0 0 0 0 0 0 0 0 0 0 0 0 30 0 0 0 0 0 0 0 29 0 0 0 25 0 0 0 0 0 0 0 0 0 0 29 38 0 0 0 0 0 0 0 29 0 21 0 0 0 0 0 0 0 0 
		41 37 0 0 0 0 0 0 0 0 0 0 0 0 0 0 0 0 0 0 0 0 40 0 0 22 0 0 0 0 0 0 0 34 0 0 0 0 0 0 0 0 0 0 28 0 0 0 22 0 0 0 0 0 0 0 0 0 0 33 0 39 0 0 0 0 0 0 0 0 0 0 0 36 0 0 28 0 0 0 0 0 0 0 0 0 0 0 0 0 0 0 0 0 0 0 
		42 0 39 0 0 39 0 0 0 0 0 0 0 0 0 0 0 0 0 0 0 0 0 0 0 20 0 0 0 0 0 0 0 0 0 0 0 0 0 0 0 0 0 0 35 0 0 0 22 24 38 0 0 0 0 0 0 0 0 26 21 0 0 0 0 0 0 0 0 0 0 27 0 0 0 0 0 0 0 0 0 0 0 0 0 0 0 0 0 23 0 0 0 0 0 0 
		43 0 30 0 0 0 0 21 34 0 0 0 0 22 0 0 0 0 24 0 0 0 28 29 0 0 0 0 0 0 0 0 0 0 0 0 0 0 0 0 0 0 28 35 0 0 0 0 0 0 0 0 0 0 0 0 0 0 0 0 0 0 0 0 0 0 0 0 0 0 0 0 0 40 0 0 0 0 0 0 0 0 0 38 0 0 0 0 0 0 0 0 0 0 0 0 
		44 23 0 0 0 0 0 0 0 0 0 0 30 0 29 0 0 0 0 0 0 0 0 0 36 0 0 0 0 0 0 0 0 0 0 0 0 0 0 0 0 0 0 0 0 0 0 0 0 0 0 20 0 0 0 0 0 0 0 0 0 0 0 0 0 0 0 0 0 0 0 35 36 0 0 0 0 0 0 0 0 0 0 40 29 0 0 20 0 0 0 0 0 25 0 34 
		45 0 0 0 0 0 0 0 0 40 0 0 0 0 0 0 0 0 0 0 38 0 0 0 33 0 0 0 0 0 0 0 30 0 0 34 0 0 0 0 0 0 0 0 0 0 0 0 0 0 20 0 0 0 0 0 0 0 0 0 0 20 0 33 30 0 0 0 37 0 0 0 0 36 0 0 0 0 26 0 0 0 0 0 0 40 0 0 0 0 0 0 0 0 0 0 
		46 0 0 0 0 0 0 0 25 0 30 0 0 40 0 37 0 0 0 0 0 0 35 0 0 27 0 0 0 0 0 29 0 21 39 0 0 0 0 0 0 0 0 0 0 0 0 0 0 0 23 0 0 37 0 0 0 0 0 0 0 0 30 0 0 0 0 0 0 0 0 0 0 0 0 0 0 37 0 0 0 0 0 0 0 26 0 0 0 0 26 0 0 32 0 0 
		47 0 0 0 0 0 39 0 0 0 0 0 0 0 36 0 0 0 0 0 0 0 0 0 0 0 0 0 0 0 0 0 0 0 0 0 0 0 0 0 0 0 22 22 0 0 0 0 0 0 32 29 0 0 0 36 0 0 0 0 0 0 0 0 0 0 0 0 0 0 0 0 0 0 0 0 0 0 0 0 30 0 26 0 0 0 0 0 0 0 0 0 0 0 0 0 
		48 0 0 0 20 0 0 0 0 0 29 0 0 0 0 29 23 39 35 0 0 0 0 0 0 0 32 0 0 0 0 0 0 0 0 0 0 0 0 0 0 0 0 24 0 0 0 0 0 0 0 0 0 0 0 0 0 0 0 0 0 0 0 39 0 0 0 0 0 0 0 0 0 0 0 0 0 0 0 0 0 0 0 0 0 0 0 0 0 0 0 40 0 0 0 0 
		49 0 0 0 0 0 0 0 0 0 0 0 28 0 0 0 0 0 0 0 0 0 0 0 34 0 0 0 0 0 0 0 0 0 0 0 0 0 0 0 0 0 0 38 0 0 20 23 32 0 0 40 32 0 0 0 0 20 0 0 0 0 0 0 0 0 0 0 0 38 0 0 0 0 0 0 21 0 0 0 0 0 26 0 36 0 0 0 0 0 0 0 0 0 0 0 
		50 0 0 0 0 0 0 0 0 0 0 0 0 0 0 0 0 0 0 0 0 0 0 0 0 0 0 29 0 0 0 0 0 0 0 0 0 0 0 0 0 0 0 0 0 20 0 0 29 0 40 0 29 0 0 0 0 0 0 40 0 0 0 0 0 0 0 0 0 0 0 0 0 39 0 0 38 0 0 0 0 0 0 0 0 0 0 0 38 0 0 0 0 0 0 0 
		51 0 0 0 0 0 0 0 0 0 0 0 0 0 0 0 0 0 0 0 22 27 0 0 0 0 0 0 0 0 21 28 0 0 0 0 0 0 0 0 20 0 0 0 0 0 0 0 0 0 32 29 0 0 0 0 40 0 0 0 0 0 0 0 0 0 0 0 0 0 0 0 0 0 0 30 20 0 0 0 0 0 35 0 0 0 0 0 0 0 26 0 0 0 0 0 
		52 0 0 0 0 0 0 0 0 0 0 0 0 0 0 0 0 24 0 0 0 0 0 0 0 0 29 33 0 0 0 0 0 0 0 0 0 0 0 0 0 30 0 0 0 0 0 37 0 0 0 0 0 0 0 0 0 0 0 0 0 0 39 0 0 38 30 0 0 0 0 0 0 0 0 26 0 0 0 0 39 0 0 36 23 24 0 0 0 0 0 28 0 0 0 0 
		53 27 0 0 0 0 0 0 0 0 0 27 0 0 0 0 0 0 26 0 0 0 0 0 0 21 0 0 0 0 0 0 0 0 0 0 0 0 0 0 0 0 0 0 0 0 0 0 0 0 0 0 0 0 0 0 0 0 0 0 0 0 0 23 0 0 0 0 0 0 29 0 0 0 0 0 0 0 0 0 0 0 0 26 0 21 0 0 0 0 0 0 24 0 0 0 
		54 0 0 0 0 0 0 0 28 0 0 0 0 28 0 0 0 29 32 0 0 0 0 0 0 0 0 0 0 0 0 20 34 0 0 30 0 0 0 0 0 0 0 0 0 0 0 0 36 0 0 0 0 0 0 0 0 0 21 0 0 0 0 21 0 0 0 0 0 0 0 0 0 0 0 0 0 0 0 0 0 0 0 0 0 0 0 0 0 0 0 0 0 0 0 0 
		55 0 0 0 0 0 0 0 0 0 0 0 0 0 0 22 0 0 0 0 0 0 0 0 27 0 0 0 0 0 0 0 0 23 0 0 0 24 0 36 0 0 0 0 0 0 0 0 0 0 0 0 40 0 0 0 0 27 20 0 21 0 20 0 0 25 29 0 0 0 0 0 0 0 0 30 0 0 0 20 0 20 0 0 0 0 0 0 0 0 35 0 0 0 0 0 
		56 0 0 0 0 22 0 0 25 0 0 0 0 0 0 0 0 35 40 0 0 0 0 0 0 0 0 0 0 0 0 0 0 32 0 0 0 0 0 35 20 0 0 0 0 0 0 0 0 0 20 0 0 0 0 0 27 0 0 0 0 0 0 0 0 29 0 0 0 0 0 0 0 0 0 0 0 0 0 0 0 0 0 0 0 0 0 0 0 0 39 0 22 0 0 0 
		57 0 0 0 0 0 0 34 0 0 0 0 0 0 0 0 0 0 30 0 0 0 0 0 0 0 29 0 0 0 0 0 0 0 25 40 0 0 0 0 0 0 0 0 0 0 0 0 0 0 0 0 0 0 0 21 20 0 0 0 0 0 0 0 0 0 23 23 0 0 0 0 0 0 0 0 0 0 0 0 0 0 0 0 0 0 0 0 0 22 0 0 0 0 0 0 
		58 0 0 0 0 0 0 0 0 0 0 34 0 0 0 0 0 0 21 0 0 0 0 0 0 0 0 0 0 0 0 0 0 0 40 0 26 0 40 0 0 0 33 26 0 0 0 0 0 0 0 40 0 0 0 0 0 0 0 0 0 0 0 0 0 0 0 0 0 0 0 0 0 0 0 0 0 0 28 0 0 0 0 0 0 0 0 0 0 0 0 22 0 0 36 0 
		59 0 0 0 0 32 0 0 0 0 0 0 0 0 0 0 0 0 0 0 0 0 38 0 0 0 0 0 0 0 0 0 0 0 37 0 0 0 0 0 0 0 0 21 0 0 0 0 0 0 0 0 0 0 0 0 21 0 0 0 0 35 0 0 0 0 0 24 0 0 0 0 0 0 0 0 0 0 0 0 0 0 0 0 0 0 0 0 0 0 0 0 0 0 0 0 
		60 24 0 0 0 0 0 0 0 0 0 0 0 0 0 0 0 0 0 0 0 0 40 0 28 38 29 0 32 0 0 40 0 0 0 0 0 0 0 0 0 29 39 0 0 0 20 0 0 0 0 0 0 0 0 0 0 0 0 0 35 0 0 0 0 0 0 0 0 0 0 0 0 0 0 0 0 0 0 0 0 0 0 0 0 0 0 0 35 0 31 0 0 0 0 0 
		61 0 0 0 0 0 0 22 38 29 0 0 0 0 0 0 0 30 0 0 0 0 0 0 0 0 0 0 0 0 0 0 23 0 31 0 0 0 0 0 0 0 0 0 0 0 0 30 0 0 0 0 0 39 0 0 20 0 0 0 0 0 0 0 0 0 0 0 0 0 0 0 35 0 0 0 0 0 0 26 0 0 0 0 0 0 0 0 0 0 31 20 0 0 0 0 
		62 24 0 0 0 0 0 0 0 0 20 0 0 0 0 0 0 23 0 0 36 0 31 0 0 0 0 26 0 0 25 0 27 0 0 35 0 0 0 0 39 0 0 0 0 0 33 0 0 39 0 0 0 0 23 21 0 0 0 0 0 0 0 0 0 0 0 0 26 0 0 0 0 0 0 27 0 0 0 0 0 0 0 0 0 0 0 0 0 0 0 0 0 0 0 0 
		63 0 0 0 0 0 0 0 0 0 0 0 0 0 0 0 0 0 0 0 0 0 33 0 0 0 0 0 0 0 0 0 0 0 0 0 0 0 0 0 0 0 0 0 0 0 30 0 0 0 0 0 0 0 0 0 0 0 0 0 0 0 0 0 0 0 0 0 0 0 0 0 0 26 0 0 0 0 29 0 0 0 0 0 27 0 0 0 20 0 0 0 0 24 0 0 
		64 0 0 0 0 0 26 0 0 0 0 0 0 0 0 27 30 40 0 0 0 0 0 0 34 0 0 22 0 0 0 0 0 0 0 0 0 0 0 0 0 25 0 0 0 0 0 0 0 0 0 0 0 38 0 0 25 29 0 0 0 0 0 0 0 0 0 0 0 0 0 0 39 0 27 0 0 0 0 0 0 0 0 0 0 0 0 0 0 0 0 0 0 0 0 0 
		65 0 0 0 0 0 0 0 0 0 0 36 38 0 0 0 0 26 0 0 0 0 36 0 0 0 0 26 0 0 0 0 0 39 0 0 0 0 0 0 0 0 0 0 0 0 0 0 0 0 0 0 0 30 0 0 29 0 23 0 0 0 0 0 0 0 0 0 0 0 0 0 40 0 0 0 0 31 0 0 0 0 31 0 0 33 0 0 35 0 0 0 0 0 0 38 
		66 0 0 0 0 0 0 0 0 0 0 0 0 0 0 0 0 0 0 0 0 0 0 28 0 0 37 0 0 37 32 0 0 0 0 0 0 0 0 30 28 0 0 0 0 0 0 0 0 0 0 0 0 0 0 0 0 0 23 0 24 0 0 0 0 0 0 0 0 0 20 0 0 0 0 0 0 0 0 0 0 0 0 0 0 0 26 0 0 0 0 0 0 0 0 0 
		67 30 0 0 0 0 0 0 0 0 0 0 0 0 0 0 0 0 0 0 0 0 0 0 0 0 36 0 0 0 0 0 0 0 0 0 0 0 0 0 0 0 0 0 0 0 37 0 0 0 0 0 0 0 0 0 0 0 0 0 0 0 0 26 0 0 0 0 0 0 0 0 0 0 0 0 0 0 0 0 0 0 0 0 0 0 0 0 0 0 0 0 0 0 0 0 
		68 0 0 0 0 24 0 0 0 0 0 0 0 0 26 0 0 39 0 0 0 0 0 0 0 0 0 0 0 0 0 0 0 0 0 0 0 0 0 0 0 0 0 0 0 0 0 0 0 0 38 0 0 0 0 0 0 0 0 0 0 0 0 0 0 0 0 0 0 0 0 0 0 0 0 0 0 31 0 0 0 0 31 0 0 0 0 0 0 0 0 0 0 0 0 21 
		69 0 0 0 0 0 0 0 0 0 0 0 0 32 0 0 33 0 23 0 0 0 0 0 0 0 0 22 0 0 0 0 0 0 0 0 0 0 0 0 0 0 0 0 0 0 0 0 0 0 0 0 0 0 29 0 0 0 0 0 0 0 0 0 0 0 0 20 0 0 0 0 0 0 0 0 0 0 0 0 0 0 0 22 0 0 0 0 0 0 0 26 23 0 40 0 
		70 0 0 0 0 0 0 0 0 0 0 0 0 0 0 0 0 0 0 0 0 0 0 0 0 0 0 0 24 0 0 0 0 27 0 31 0 0 27 0 0 0 0 27 0 35 0 0 0 0 0 0 0 0 0 0 0 0 0 0 0 0 0 0 0 0 0 0 0 0 0 0 0 0 0 0 27 0 0 0 0 0 0 0 0 0 0 0 20 0 0 0 0 0 0 0 
		71 0 0 0 0 0 0 22 0 0 0 0 0 0 0 0 0 0 0 0 0 0 0 0 0 0 31 0 0 0 0 0 0 0 0 40 0 0 0 0 0 0 0 0 0 36 0 0 0 0 0 0 0 0 0 0 0 0 0 0 0 0 35 0 0 39 40 0 0 0 0 0 0 37 0 0 32 0 34 0 0 0 0 0 0 0 0 0 0 0 37 0 0 0 0 0 
		72 26 0 0 0 0 0 0 34 31 26 0 0 0 0 0 0 35 21 0 0 0 26 0 0 32 0 0 0 20 39 22 0 0 0 0 0 0 0 0 0 0 36 0 40 0 36 0 0 0 0 39 0 0 0 0 0 0 0 0 0 0 0 0 26 0 0 0 0 0 0 0 37 0 0 0 0 0 0 0 0 0 34 0 0 0 0 0 24 0 0 0 0 0 0 39 
		73 0 0 0 0 24 0 0 0 0 0 0 0 0 0 0 0 0 34 0 0 0 24 0 0 0 0 0 0 32 0 0 0 0 0 0 0 0 0 0 0 0 0 0 0 0 0 0 0 0 0 0 0 0 0 0 0 0 0 0 0 0 0 0 0 27 0 0 0 0 0 0 0 0 0 0 0 0 0 0 0 0 37 0 0 0 0 0 0 0 0 0 0 0 0 0 
		74 0 0 0 0 0 0 0 0 0 0 0 0 0 0 0 0 32 0 20 0 0 0 0 0 0 36 0 0 0 0 31 0 0 0 0 0 0 0 0 0 0 0 0 0 0 0 0 0 0 0 0 30 26 0 0 30 0 0 0 0 0 0 27 0 0 0 0 0 0 0 0 0 0 0 0 0 0 0 0 0 0 0 0 0 0 0 0 0 40 39 0 0 0 0 0 
		75 0 0 0 0 0 0 0 0 0 0 34 0 0 0 0 0 0 0 0 0 0 0 0 0 0 0 0 0 0 0 0 0 0 0 0 0 0 0 0 0 29 28 0 0 0 0 0 0 0 21 38 20 0 0 0 0 0 0 0 0 0 0 0 0 0 0 0 0 0 0 27 32 0 0 0 0 0 0 0 0 0 0 0 0 0 0 0 0 0 0 0 0 0 0 0 
		76 0 0 0 0 0 0 0 0 20 0 0 0 0 0 33 0 34 0 0 0 0 0 0 0 0 0 34 0 0 0 37 0 32 0 28 0 0 23 0 0 38 0 0 0 0 0 37 0 0 0 0 0 0 0 0 0 0 0 0 0 0 0 0 0 0 31 0 0 31 0 0 0 0 0 0 0 0 0 0 0 34 0 0 0 24 0 35 0 34 0 34 0 0 0 0 
		77 33 0 0 0 0 0 0 0 0 0 25 22 0 0 0 0 0 0 0 0 0 0 0 0 0 0 0 0 0 0 0 0 0 0 23 0 0 0 0 0 0 0 0 0 0 26 0 0 0 0 0 0 0 0 0 0 0 0 28 0 0 0 0 29 0 0 0 0 0 0 0 34 0 0 0 0 0 0 0 0 0 0 0 0 0 0 0 0 0 0 0 0 0 0 0 
		78 0 0 0 0 0 0 0 0 0 0 0 27 0 0 0 0 0 0 0 0 0 0 0 0 0 29 23 0 0 32 0 0 0 0 34 0 0 34 0 0 0 0 0 0 0 0 0 0 0 0 0 0 0 0 0 20 0 0 0 0 0 26 0 0 0 0 0 0 0 0 0 0 0 0 0 0 0 0 0 0 0 21 0 0 0 20 0 0 40 0 0 40 0 0 0 
		79 0 0 36 0 0 0 0 0 0 0 0 0 0 0 0 0 27 26 0 0 0 0 0 0 0 0 0 0 0 0 0 0 0 28 0 26 0 0 0 0 0 0 0 0 0 0 0 30 0 0 0 0 39 0 0 0 0 0 0 0 0 0 0 0 0 0 0 0 0 0 0 0 0 0 0 0 0 0 0 0 0 0 0 0 0 0 0 0 30 0 28 0 0 0 0 
		80 0 0 0 0 0 0 22 0 0 0 26 0 37 0 35 0 37 0 0 0 0 37 0 0 0 0 0 30 0 0 0 0 0 0 0 0 0 0 0 0 0 0 0 0 0 0 0 0 0 0 0 0 0 0 0 20 0 0 0 0 0 0 0 0 0 0 0 0 0 0 0 0 0 0 0 0 34 0 0 0 0 0 0 38 0 0 0 29 0 0 0 0 0 0 0 
		81 0 0 0 0 0 0 30 0 28 0 0 0 0 0 0 0 0 0 0 0 0 0 0 0 34 0 0 0 0 23 0 0 0 35 0 0 0 25 0 0 0 0 0 0 0 0 0 26 0 26 0 35 0 0 0 0 0 0 0 0 0 0 0 0 0 31 0 0 31 0 0 0 34 37 0 0 0 0 21 0 0 0 0 40 0 0 0 0 0 0 0 0 0 0 0 
		82 0 0 0 0 0 0 0 0 0 27 0 0 0 0 39 0 0 0 0 0 0 23 0 0 0 0 0 0 0 0 0 38 25 0 0 0 23 0 0 0 0 0 0 38 40 0 0 0 0 0 0 0 36 26 0 0 0 0 0 0 0 0 0 0 0 0 0 0 0 22 0 0 0 0 0 0 0 0 0 0 0 0 0 0 0 0 26 0 0 0 0 22 0 0 0 
		83 0 0 0 0 20 0 0 29 0 0 0 0 0 0 0 0 0 0 0 0 0 0 0 0 29 0 0 0 0 0 0 0 0 0 0 0 0 0 0 0 0 0 0 0 29 0 0 0 0 36 0 0 23 0 0 0 0 0 0 0 0 0 0 27 0 0 0 0 0 0 0 0 0 0 0 0 0 0 0 0 38 40 0 0 0 22 0 0 0 0 0 0 0 0 0 
		84 0 0 0 0 0 0 0 0 0 0 0 0 0 0 25 0 27 0 0 0 0 0 0 0 0 0 38 0 0 0 0 0 0 0 0 0 0 0 0 0 29 0 0 0 0 40 26 0 0 0 0 0 24 21 0 0 0 0 0 0 0 0 0 0 0 33 0 0 0 0 0 0 0 0 0 0 24 0 0 0 0 0 0 0 0 0 0 0 0 0 0 0 0 0 0 
		85 30 0 0 0 0 0 0 0 0 0 0 0 0 0 0 0 0 0 0 0 0 0 0 0 0 0 0 0 0 0 0 0 0 0 0 0 0 0 0 0 0 0 0 0 0 0 0 0 0 0 0 0 0 0 0 0 0 0 0 0 0 0 0 0 0 0 26 0 0 0 0 0 0 0 0 0 0 0 20 0 0 0 0 22 0 0 0 0 0 0 0 0 0 24 0 
		86 0 0 37 29 0 0 0 0 0 0 0 0 0 0 0 0 0 0 0 0 0 0 0 0 0 0 0 0 0 0 0 0 34 0 0 0 0 0 0 0 21 0 0 0 20 0 0 0 0 0 0 0 0 0 0 0 0 0 0 0 0 0 0 0 0 0 0 0 0 0 0 0 0 0 0 0 35 0 0 0 0 0 26 0 0 0 0 0 0 0 0 33 0 0 0 
		87 28 0 0 0 0 0 0 0 0 0 0 0 0 0 0 0 0 0 0 0 0 0 0 21 0 0 32 0 0 0 0 0 0 0 21 0 0 0 0 0 0 0 0 0 0 0 0 0 0 0 38 0 0 0 0 0 0 0 0 0 35 0 0 20 0 35 0 0 0 0 20 0 24 0 0 0 0 0 0 0 29 0 0 0 0 0 0 0 0 0 0 0 0 0 38 
		88 0 0 0 34 0 24 0 0 0 26 0 0 0 0 0 0 0 0 0 0 0 29 0 0 0 0 0 0 24 0 27 0 24 0 0 0 0 0 0 0 0 0 23 0 0 0 0 0 0 0 0 0 0 0 0 0 0 22 0 0 0 0 0 0 0 0 0 0 0 0 0 0 0 0 40 0 34 0 40 30 0 0 0 0 0 0 0 0 0 0 32 0 0 0 0 
		89 0 0 0 0 0 0 36 0 0 0 0 0 0 0 0 0 0 0 0 0 0 30 0 0 0 0 39 0 30 30 0 0 35 0 0 0 0 0 0 0 0 0 0 0 0 0 26 0 0 0 0 26 0 0 0 35 39 0 0 0 31 31 0 0 0 0 0 0 0 0 0 37 0 0 39 0 0 0 0 0 0 0 0 0 0 0 0 0 0 0 0 0 0 0 0 
		90 0 0 0 0 0 30 0 40 0 25 0 0 0 0 40 0 0 0 0 0 0 0 0 0 0 37 32 0 0 0 0 0 0 32 0 0 0 0 38 0 0 0 0 0 0 0 0 0 40 0 0 0 28 0 0 0 0 0 22 0 0 20 0 0 0 0 0 0 0 26 0 0 0 0 0 0 34 0 0 28 0 0 0 0 0 0 0 0 32 0 0 0 0 0 0 
		91 0 0 0 0 0 0 0 34 0 0 0 0 30 0 32 0 0 0 0 0 0 0 0 27 0 37 34 0 0 0 0 21 0 0 0 0 0 0 0 31 0 0 0 0 0 0 0 0 0 0 0 0 0 24 0 0 22 0 0 0 0 0 0 0 0 0 0 0 0 23 0 0 0 0 0 0 0 0 40 0 0 0 22 0 0 0 33 0 0 0 0 0 0 0 0 
		92 0 0 0 0 0 0 0 20 0 0 24 0 0 0 0 0 0 0 0 0 0 0 0 0 0 0 31 0 0 0 0 24 0 0 0 0 0 0 0 0 0 0 0 0 25 0 32 0 0 0 0 0 0 0 0 0 0 0 0 0 0 0 0 24 0 0 0 0 0 0 0 0 0 0 0 0 0 0 0 0 0 0 0 0 0 0 0 0 0 0 0 0 0 0 0 
		93 0 0 0 0 0 0 0 31 0 0 0 0 0 0 0 0 0 0 0 0 0 0 0 0 0 0 0 32 0 0 0 0 0 0 0 0 0 0 0 23 0 0 0 0 0 0 0 0 0 0 0 0 0 0 0 0 0 0 36 0 0 0 0 0 0 0 0 0 0 40 0 0 0 0 0 0 0 0 0 0 0 0 0 0 0 24 0 0 0 0 0 0 0 0 0 
		94 0 0 0 0 25 0 0 0 0 0 0 0 0 0 0 0 0 0 0 0 0 25 0 20 0 27 0 0 25 28 0 0 0 0 0 0 0 0 0 0 0 0 0 0 34 0 0 0 0 0 0 0 0 0 0 0 0 0 0 0 0 0 0 0 0 38 0 0 21 0 0 0 39 0 0 0 0 0 0 0 0 0 0 0 0 0 0 38 0 0 0 0 0 0 0 
;
